p cnf 1062 807
-827 937 0
-937 827 0
-939 -940 0
-829 939 0
-830 940 0
-939 829 0
-940 830 0
-942 -943 0
-832 942 0
-833 943 0
-942 832 0
-943 833 0
-945 -946 0
-945 -947 0
-946 -947 0
-835 945 0
-836 946 0
-837 947 0
-945 835 0
-946 836 0
-947 837 0
-949 -950 0
-839 949 0
-840 950 0
-949 839 0
-950 840 0
-952 -953 0
-952 -954 0
-953 -954 0
-842 952 0
-843 953 0
-844 954 0
-952 842 0
-953 843 0
-954 844 0
-956 -957 0
-846 956 0
-847 957 0
-956 846 0
-957 847 0
-959 -960 0
-959 -961 0
-960 -961 0
-849 960 0
-850 961 0
-851 960 0
-852 959 0
-959 852 0
-960 849 851 0
-961 850 0
-963 969 970 971 972 973 0
-969 -970 0
-969 -971 0
-969 -972 0
-969 -973 0
-970 -971 0
-970 -972 0
-970 -973 0
-971 -972 0
-971 -973 0
-972 -973 0
-963 974 975 976 977 978 979 980 0
-974 -975 0
-974 -976 0
-974 -977 0
-974 -978 0
-974 -979 0
-974 -980 0
-975 -976 0
-975 -977 0
-975 -978 0
-975 -979 0
-975 -980 0
-976 -977 0
-976 -978 0
-976 -979 0
-976 -980 0
-977 -978 0
-977 -979 0
-977 -980 0
-978 -979 0
-978 -980 0
-979 -980 0
-963 981 982 983 984 985 986 987 988 0
-981 -982 0
-981 -983 0
-981 -984 0
-981 -985 0
-981 -986 0
-981 -987 0
-981 -988 0
-982 -983 0
-982 -984 0
-982 -985 0
-982 -986 0
-982 -987 0
-982 -988 0
-983 -984 0
-983 -985 0
-983 -986 0
-983 -987 0
-983 -988 0
-984 -985 0
-984 -986 0
-984 -987 0
-984 -988 0
-985 -986 0
-985 -987 0
-985 -988 0
-986 -987 0
-986 -988 0
-987 -988 0
-963 966 0
-963 968 0
-963 967 0
-963 -964 0
-972 -974 -966 897 0
-972 -979 -966 904 0
-972 -975 -966 884 0
-970 -978 -966 885 0
-972 -980 -966 886 0
-969 -975 -966 887 0
-971 -975 -966 900 0
-973 -978 -966 916 0
-971 -980 -966 889 0
-972 -977 -966 891 0
-971 -978 -966 909 0
-969 -978 -966 901 0
-973 -979 -966 892 0
-973 -975 -966 917 0
-969 -979 -966 918 0
-972 -976 -966 910 0
-970 -975 -966 911 0
-973 -974 -966 894 0
-973 -976 -966 912 0
-970 -980 -966 903 0
-973 -980 -966 896 0
-972 -978 -966 914 0
-969 -980 -966 920 0
-970 -976 -966 921 0
-969 -976 -966 922 0
-981 -967 908 0
-986 -967 893 0
-982 -967 919 0
-987 -967 895 0
-985 -967 899 0
-984 -967 915 0
-983 -967 906 0
-988 -967 890 0
-969 -968 794 0
-972 -968 767 0
-971 -968 761 0
-970 -968 785 0
-973 -968 769 0
-963 -969 -977 0
-963 -969 -974 0
-963 -971 -977 0
-963 -971 -974 0
-963 -971 -979 0
-963 -971 -976 0
-963 -970 -977 0
-963 -970 -974 0
-963 -970 -979 0
-963 -973 -977 0
-963 -969 -981 0
-963 -969 -987 0
-963 -969 -984 0
-963 -971 -981 0
-963 -971 -987 0
-963 -971 -986 0
-963 -971 -983 0
-963 -971 -984 0
-963 -970 -981 0
-963 -970 -987 0
-963 -970 -986 0
-963 -970 -984 0
-963 -972 -987 0
-963 -973 -987 0
-963 -973 -984 0
-880 963 0
-879 964 0
-963 880 0
-964 879 0
-989 993 0
-991 993 0
-990 -993 0
-992 -993 0
-884 994 -963 -972 975 0
-884 994 -963 972 0
-884 994 963 0
884 -994 -963 -972 982 0
884 -994 -963 972 0
884 -994 963 0
-885 995 -963 -970 978 0
-885 995 -963 970 0
-885 995 963 0
885 -995 -963 -970 985 0
885 -995 -963 970 0
885 -995 963 0
-761 996 -963 971 0
-761 996 963 0
761 -996 -963 976 0
761 -996 963 0
-886 997 -963 -972 980 0
-886 997 -963 972 0
-886 997 963 0
886 -997 -963 -972 988 0
886 -997 -963 972 0
886 -997 963 0
-887 998 -963 -969 975 0
-887 998 -963 969 0
-887 998 963 0
887 -998 -963 -969 982 0
887 -998 -963 969 0
887 -998 963 0
-889 999 -963 -971 980 0
-889 999 -963 971 0
-889 999 963 0
889 -999 -963 -971 988 0
889 -999 -963 971 0
889 -999 963 0
-890 1000 -963 988 0
-890 1000 963 0
890 -1000 0
-891 1001 -963 -972 977 0
-891 1001 -963 972 0
-891 1001 963 0
891 -1001 -963 -972 984 0
891 -1001 -963 972 0
891 -1001 963 0
-767 1002 -963 972 0
-767 1002 963 0
767 -1002 0
-892 1003 -963 -973 979 0
-892 1003 -963 973 0
-892 1003 963 0
892 -1003 -963 -973 986 0
892 -1003 -963 973 0
892 -1003 963 0
-893 1004 -963 986 0
-893 1004 963 0
893 -1004 -963 970 0
893 -1004 963 0
-769 1005 -963 973 0
-769 1005 963 0
769 -1005 -963 977 0
769 -1005 963 0
-894 1006 -963 -973 974 0
-894 1006 -963 973 0
-894 1006 963 0
894 -1006 -963 -973 981 0
894 -1006 -963 973 0
894 -1006 963 0
-895 1007 -963 987 0
-895 1007 963 0
895 -1007 -963 972 0
895 -1007 963 0
-896 1008 -963 -973 980 0
-896 1008 -963 973 0
-896 1008 963 0
896 -1008 -963 -973 988 0
896 -1008 -963 973 0
896 -1008 963 0
-897 1009 -963 -972 974 0
-897 1009 -963 972 0
-897 1009 963 0
897 -1009 -963 -972 981 0
897 -1009 -963 972 0
897 -1009 963 0
-773 1010 0
773 -1010 -963 975 0
773 -1010 963 0
-899 1011 -963 985 0
-899 1011 963 0
899 -1011 0
-900 1012 -963 -971 975 0
-900 1012 -963 971 0
-900 1012 963 0
900 -1012 -963 -971 982 0
900 -1012 -963 971 0
900 -1012 963 0
-901 1013 -963 -969 978 0
-901 1013 -963 969 0
-901 1013 963 0
901 -1013 -963 -969 985 0
901 -1013 -963 969 0
901 -1013 963 0
-778 1014 0
778 -1014 -963 978 0
778 -1014 963 0
-903 1015 -963 -970 980 0
-903 1015 -963 970 0
-903 1015 963 0
903 -1015 -963 -970 988 0
903 -1015 -963 970 0
903 -1015 963 0
-904 1016 -963 -972 979 0
-904 1016 -963 972 0
-904 1016 963 0
904 -1016 -963 -972 986 0
904 -1016 -963 972 0
904 -1016 963 0
-781 1017 0
781 -1017 -963 980 0
781 -1017 963 0
-906 1018 -963 983 0
-906 1018 963 0
906 -1018 -963 971 0
906 -1018 963 0
-908 1019 -963 981 0
-908 1019 963 0
908 -1019 -963 969 0
908 -1019 963 0
-909 1020 -963 -971 978 0
-909 1020 -963 971 0
-909 1020 963 0
909 -1020 -963 -971 985 0
909 -1020 -963 971 0
909 -1020 963 0
-785 1021 -963 970 0
-785 1021 963 0
785 -1021 -963 979 0
785 -1021 963 0
-910 1022 -963 -972 976 0
-910 1022 -963 972 0
-910 1022 963 0
910 -1022 -963 -972 983 0
910 -1022 -963 972 0
910 -1022 963 0
-911 1023 -963 -970 975 0
-911 1023 -963 970 0
-911 1023 963 0
911 -1023 -963 -970 982 0
911 -1023 -963 970 0
911 -1023 963 0
-912 1024 -963 -973 976 0
-912 1024 -963 973 0
-912 1024 963 0
912 -1024 -963 -973 983 0
912 -1024 -963 973 0
912 -1024 963 0
-914 1025 -963 -972 978 0
-914 1025 -963 972 0
-914 1025 963 0
914 -1025 -963 -972 985 0
914 -1025 -963 972 0
914 -1025 963 0
-915 1026 -963 984 0
-915 1026 963 0
915 -1026 -963 973 0
915 -1026 963 0
-916 1027 -963 -973 978 0
-916 1027 -963 973 0
-916 1027 963 0
916 -1027 -963 -973 985 0
916 -1027 -963 973 0
916 -1027 963 0
-917 1028 -963 -973 975 0
-917 1028 -963 973 0
-917 1028 963 0
917 -1028 -963 -973 982 0
917 -1028 -963 973 0
917 -1028 963 0
-918 1029 -963 -969 979 0
-918 1029 -963 969 0
-918 1029 963 0
918 -1029 -963 -969 986 0
918 -1029 -963 969 0
918 -1029 963 0
-919 1030 -963 982 0
-919 1030 963 0
919 -1030 0
-794 1031 -963 969 0
-794 1031 963 0
794 -1031 -963 974 0
794 -1031 963 0
-920 1032 -963 -969 980 0
-920 1032 -963 969 0
-920 1032 963 0
920 -1032 -963 -969 988 0
920 -1032 -963 969 0
920 -1032 963 0
-921 1033 -963 -970 976 0
-921 1033 -963 970 0
-921 1033 963 0
921 -1033 -963 -970 983 0
921 -1033 -963 970 0
921 -1033 963 0
-922 1034 -963 -969 976 0
-922 1034 -963 969 0
-922 1034 963 0
922 -1034 -963 -969 983 0
922 -1034 -963 969 0
922 -1034 963 0
-990 1045 1046 1047 1048 1049 0
-1045 -1046 0
-1045 -1047 0
-1045 -1048 0
-1045 -1049 0
-1046 -1047 0
-1046 -1048 0
-1046 -1049 0
-1047 -1048 0
-1047 -1049 0
-1048 -1049 0
-990 1050 1051 1052 1053 1054 1055 1056 1057 0
-1050 -1051 0
-1050 -1052 0
-1050 -1053 0
-1050 -1054 0
-1050 -1055 0
-1050 -1056 0
-1050 -1057 0
-1051 -1052 0
-1051 -1053 0
-1051 -1054 0
-1051 -1055 0
-1051 -1056 0
-1051 -1057 0
-1052 -1053 0
-1052 -1054 0
-1052 -1055 0
-1052 -1056 0
-1052 -1057 0
-1053 -1054 0
-1053 -1055 0
-1053 -1056 0
-1053 -1057 0
-1054 -1055 0
-1054 -1056 0
-1054 -1057 0
-1055 -1056 0
-1055 -1057 0
-1056 -1057 0
-990 1043 0
-990 1042 0
-991 888 0
-991 1010 0
-992 1050 1051 1052 1053 1054 1055 1056 1057 0
-1050 -1051 0
-1050 -1052 0
-1050 -1053 0
-1050 -1054 0
-1050 -1055 0
-1050 -1056 0
-1050 -1057 0
-1051 -1052 0
-1051 -1053 0
-1051 -1054 0
-1051 -1055 0
-1051 -1056 0
-1051 -1057 0
-1052 -1053 0
-1052 -1054 0
-1052 -1055 0
-1052 -1056 0
-1052 -1057 0
-1053 -1054 0
-1053 -1055 0
-1053 -1056 0
-1053 -1057 0
-1054 -1055 0
-1054 -1056 0
-1054 -1057 0
-1055 -1056 0
-1055 -1057 0
-1056 -1057 0
-992 1045 1046 1047 1048 1049 0
-1045 -1046 0
-1045 -1047 0
-1045 -1048 0
-1045 -1049 0
-1046 -1047 0
-1046 -1048 0
-1046 -1049 0
-1047 -1048 0
-1047 -1049 0
-1048 -1049 0
-992 1044 0
-992 1035 0
-989 -990 0
-989 -991 0
-989 -992 0
-990 -991 0
-990 -992 0
-991 -992 0
-1051 -1035 1010 0
-1056 -1035 1002 0
-1057 -1035 1017 0
-1052 -1035 996 0
-1055 -1035 1021 0
-1053 -1035 1005 0
-1054 -1035 1014 0
-1050 -1035 1031 0
-972 -981 -1036 1009 0
-972 -986 -1036 1016 0
-972 -982 -1036 994 0
-970 -985 -1036 995 0
-972 -988 -1036 997 0
-969 -982 -1036 998 0
-971 -982 -1036 1012 0
-973 -985 -1036 1027 0
-971 -988 -1036 999 0
-972 -984 -1036 1001 0
-971 -985 -1036 1020 0
-969 -985 -1036 1013 0
-973 -986 -1036 1003 0
-973 -982 -1036 1028 0
-969 -986 -1036 1029 0
-972 -983 -1036 1022 0
-970 -982 -1036 1023 0
-973 -981 -1036 1006 0
-973 -983 -1036 1024 0
-970 -988 -1036 1015 0
-973 -988 -1036 1008 0
-972 -985 -1036 1025 0
-969 -988 -1036 1032 0
-970 -983 -1036 1033 0
-969 -983 -1036 1034 0
-972 -974 1037 -1009 0
-972 -979 1037 -1016 0
-972 -975 1037 -994 0
-970 -978 1037 -995 0
-972 -980 1037 -997 0
-969 -975 1037 -998 0
-971 -975 1037 -1012 0
-973 -978 1037 -1027 0
-971 -980 1037 -999 0
-972 -977 1037 -1001 0
-971 -978 1037 -1020 0
-969 -978 1037 -1013 0
-973 -979 1037 -1003 0
-973 -975 1037 -1028 0
-969 -979 1037 -1029 0
-972 -976 1037 -1022 0
-970 -975 1037 -1023 0
-973 -974 1037 -1006 0
-973 -976 1037 -1024 0
-970 -980 1037 -1015 0
-973 -980 1037 -1008 0
-972 -978 1037 -1025 0
-969 -980 1037 -1032 0
-970 -976 1037 -1033 0
-969 -976 1037 -1034 0
-969 -1038 1019 0
-972 -1038 1007 0
-970 -1038 1004 0
-973 -1038 1026 0
-971 -1038 1018 0
-981 1039 -1019 0
-986 1039 -1004 0
-982 1039 -1030 0
-987 1039 -1007 0
-985 1039 -1011 0
-984 1039 -1026 0
-983 1039 -1018 0
-988 1039 -1000 0
-969 1040 -1031 0
-972 1040 -1002 0
-971 1040 -996 0
-970 1040 -1021 0
-973 1040 -1005 0
-975 -1041 1010 0
-980 -1041 1017 0
-976 -1041 996 0
-979 -1041 1021 0
-977 -1041 1005 0
-978 -1041 1014 0
-974 -1041 1031 0
-1045 -1042 1031 0
-1048 -1042 1002 0
-1047 -1042 996 0
-1046 -1042 1021 0
-1049 -1042 1005 0
-1054 -1043 907 0
-1053 -1043 882 0
-1055 -1043 883 0
-1051 -1043 902 0
-1050 -1043 905 0
-1052 -1043 898 0
-1056 -1043 913 0
-1057 -1043 888 0
-1045 -1044 905 0
-1049 -1044 882 0
-1046 -1044 883 0
-1047 -1044 898 0
-1048 -1044 913 0
-963 1036 0
-1058 969 -974 0
-1058 -969 974 0
-1058 970 -979 0
-1058 -970 979 0
-1058 971 -976 0
-1058 -971 976 0
-1058 973 -977 0
-1058 -973 977 0
-969 -974 1058 0
-970 -979 1058 0
-971 -976 1058 0
-973 -977 1058 0
-972 -1058 0
-978 -1058 0
-975 -1058 0
-980 -1058 0
-963 -1040 1058 0
-963 1041 0
-1059 974 -981 0
-1059 -974 981 0
-1059 975 -982 0
-1059 -975 982 0
-1059 976 -983 0
-1059 -976 983 0
-1059 977 -984 0
-1059 -977 984 0
-1059 978 -985 0
-1059 -978 985 0
-1059 979 -986 0
-1059 -979 986 0
-1059 980 -988 0
-1059 -980 988 0
-974 -981 1059 0
-975 -982 1059 0
-976 -983 1059 0
-977 -984 1059 0
-978 -985 1059 0
-979 -986 1059 0
-980 -988 1059 0
-987 -1059 0
-963 -1037 1059 0
-963 1038 0
-1060 981 -974 0
-1060 -981 974 0
-1060 982 -975 0
-1060 -982 975 0
-1060 983 -976 0
-1060 -983 976 0
-1060 984 -977 0
-1060 -984 977 0
-1060 985 -978 0
-1060 -985 978 0
-1060 986 -979 0
-1060 -986 979 0
-1060 988 -980 0
-1060 -988 980 0
-981 -974 1060 0
-982 -975 1060 0
-983 -976 1060 0
-984 -977 1060 0
-985 -978 1060 0
-986 -979 1060 0
-988 -980 1060 0
-987 -1060 0
-1061 981 -969 0
-1061 -981 969 0
-1061 986 -970 0
-1061 -986 970 0
-1061 983 -971 0
-1061 -983 971 0
-1061 987 -972 0
-1061 -987 972 0
-1061 984 -973 0
-1061 -984 973 0
-981 -969 1061 0
-986 -970 1061 0
-983 -971 1061 0
-987 -972 1061 0
-984 -973 1061 0
-985 -1061 0
-982 -1061 0
-988 -1061 0
-963 -1039 1061 0
-990 -1048 -1056 0
-990 -1046 -1056 0
-990 -1046 -1050 0
-990 -1046 -1055 0
-990 -1046 -1053 0
-990 -1047 -1052 0
-990 -1047 -1056 0
-990 -1047 -1050 0
-990 -1047 -1055 0
-990 -1047 -1053 0
-990 -1045 -1056 0
-990 -1045 -1050 0
-990 -1045 -1053 0
-990 -1049 -1056 0
-990 -1049 -1053 0
-992 -1048 -1056 0
-992 -1046 -1056 0
-992 -1046 -1050 0
-992 -1046 -1055 0
-992 -1046 -1053 0
-992 -1047 -1052 0
-992 -1047 -1056 0
-992 -1047 -1050 0
-992 -1047 -1055 0
-992 -1047 -1053 0
-992 -1045 -1056 0
-992 -1045 -1050 0
-992 -1045 -1053 0
-992 -1049 -1056 0
-992 -1049 -1053 0
-880 990 991 992 0
-879 989 0
-990 880 0
-991 880 0
-992 880 0
-989 879 0
-882 151 -993 0
882 -151 -993 0
-883 152 -993 0
883 -152 -993 0
-994 154 -993 0
994 -154 -993 0
-995 155 -993 0
995 -155 -993 0
-996 385 -993 0
996 -385 -993 0
-997 156 -993 0
997 -156 -993 0
-998 158 -993 0
998 -158 -993 0
-888 159 -993 0
888 -159 -993 0
-999 160 -993 0
999 -160 -993 0
-1000 602 -993 0
1000 -602 -993 0
-1001 10 -993 0
1001 -10 -993 0
-1002 162 -993 0
1002 -162 -993 0
-1003 163 -993 0
1003 -163 -993 0
-1004 270 -993 0
1004 -270 -993 0
-1005 386 -993 0
1005 -386 -993 0
-1006 11 -993 0
1006 -11 -993 0
-1007 271 -993 0
1007 -271 -993 0
-1008 167 -993 0
1008 -167 -993 0
-1009 170 -993 0
1009 -170 -993 0
-1010 171 -993 0
1010 -171 -993 0
-898 172 -993 0
898 -172 -993 0
-1011 273 -993 0
1011 -273 -993 0
-1012 12 -993 0
1012 -12 -993 0
-1013 174 -993 0
1013 -174 -993 0
-902 274 -993 0
902 -274 -993 0
-1014 387 -993 0
1014 -387 -993 0
-1015 176 -993 0
1015 -176 -993 0
-1016 153 -993 0
1016 -153 -993 0
-1017 388 -993 0
1017 -388 -993 0
-905 157 -993 0
905 -157 -993 0
-1018 267 -993 0
1018 -267 -993 0
-907 268 -993 0
907 -268 -993 0
-1019 269 -993 0
1019 -269 -993 0
-1020 161 -993 0
1020 -161 -993 0
-1021 389 -993 0
1021 -389 -993 0
-1022 164 -993 0
1022 -164 -993 0
-1023 165 -993 0
1023 -165 -993 0
-1024 166 -993 0
1024 -166 -993 0
-913 168 -993 0
913 -168 -993 0
-1025 169 -993 0
1025 -169 -993 0
-1026 272 -993 0
1026 -272 -993 0
-1027 173 -993 0
1027 -173 -993 0
-1028 175 -993 0
1028 -175 -993 0
-1029 13 -993 0
1029 -13 -993 0
-1030 603 -993 0
1030 -603 -993 0
-1031 390 -993 0
1031 -390 -993 0
-1032 177 -993 0
1032 -177 -993 0
-1033 14 -993 0
1033 -14 -993 0
-1034 178 -993 0
1034 -178 -993 0
-935 1062 0
-1062 935 0
a 993 0
